
Gurobi 12.0.2 (win64) logging started Mon Nov  3 21:51:55 2025

Set parameter LogFile to value "C:\Ioana\_uni\honours\slp\algorithm\Main_files\results\starting with cytosolic APAP\Task_004_Sample007_irr_gurobi.log"
Gurobi Optimizer version 12.0.2 build v12.0.2rc0 (win64 - Windows 11.0 (26100.2))

CPU model: Intel(R) Core(TM) Ultra 5 125H, instruction set [SSE2|AVX|AVX2]
Thread count: 14 physical cores, 18 logical processors, using up to 18 threads

Non-default parameters:
TimeLimit  2200

Optimize a model with 47236 rows, 34513 columns and 146723 nonzeros
Model fingerprint: 0x64b71f46
Variable types: 17264 continuous, 17249 integer (17249 binary)
Coefficient statistics:
  Matrix range     [1e-04, 8e+04]
  Objective range  [1e-04, 9e-01]
  Bounds range     [1e+00, 1e+03]
  RHS range        [1e+00, 1e+00]
Presolve removed 30820 rows and 21540 columns
Presolve time: 0.32s
Presolved: 16416 rows, 12973 columns, 54853 nonzeros
Variable types: 6425 continuous, 6548 integer (6548 binary)
Found heuristic solution: objective 6.5095470

Root relaxation: objective 7.982248e-03, 6 iterations, 0.00 seconds (0.00 work units)

    Nodes    |    Current Node    |     Objective Bounds      |     Work
 Expl Unexpl |  Obj  Depth IntInf | Incumbent    BestBd   Gap | It/Node Time

*    0     0               0       0.0079822    0.00798  0.00%     -    0s

Explored 1 nodes (6 simplex iterations) in 0.44 seconds (0.46 work units)
Thread count was 18 (of 18 available processors)

Solution count 2: 0.00798225 6.50955 

Optimal solution found (tolerance 1.00e-04)
Best objective 7.982247986871e-03, best bound 7.982247986871e-03, gap 0.0000%

Gurobi 12.0.2 (win64) logging started Mon Nov  3 21:53:12 2025

Set parameter LogFile to value "C:\Ioana\_uni\honours\slp\algorithm\Main_files\results\starting with cytosolic APAP\Task_004_Sample007_irr_gurobi.log"
Gurobi Optimizer version 12.0.2 build v12.0.2rc0 (win64 - Windows 11.0 (26100.2))

CPU model: Intel(R) Core(TM) Ultra 5 125H, instruction set [SSE2|AVX|AVX2]
Thread count: 14 physical cores, 18 logical processors, using up to 18 threads

Non-default parameters:
TimeLimit  2200

Optimize a model with 47236 rows, 34513 columns and 146723 nonzeros
Model fingerprint: 0x3c7bfc14
Variable types: 17264 continuous, 17249 integer (17249 binary)
Coefficient statistics:
  Matrix range     [1e-04, 8e+04]
  Objective range  [1e-04, 1e+01]
  Bounds range     [1e+00, 1e+03]
  RHS range        [1e+00, 1e+00]
Presolve removed 30820 rows and 21540 columns
Presolve time: 0.34s
Presolved: 16416 rows, 12973 columns, 54853 nonzeros
Variable types: 6425 continuous, 6548 integer (6548 binary)
Found heuristic solution: objective 70.3691961

Root relaxation: objective 7.982248e-03, 6 iterations, 0.02 seconds (0.00 work units)

    Nodes    |    Current Node    |     Objective Bounds      |     Work
 Expl Unexpl |  Obj  Depth IntInf | Incumbent    BestBd   Gap | It/Node Time

*    0     0               0       0.0079822    0.00798  0.00%     -    0s

Explored 1 nodes (6 simplex iterations) in 0.44 seconds (0.46 work units)
Thread count was 18 (of 18 available processors)

Solution count 2: 0.00798225 70.3692 

Optimal solution found (tolerance 1.00e-04)
Best objective 7.982247986871e-03, best bound 7.982247986871e-03, gap 0.0000%
